\ This file has been generated by DOcplex
\ ENCODING=ISO-8859-1
\Problem name: Brandom22642_6.lp

Minimize
 obj: - 43760 x0 - 21880 x1 - 43540 x2 - 21770 x3 - 43186 x4 - 21593 x5 + [
      29512 x0^2 + 29512 x0*x1 + 58160 x0*x2 + 29080 x0*x3 + 58592 x0*x4
      + 29296 x0*x5 + 7378 x1^2 + 29080 x1*x2 + 14540 x1*x3 + 29296 x1*x4
      + 14648 x1*x5 + 29536 x2^2 + 29536 x2*x3 + 58256 x2*x4 + 29128 x2*x5
      + 7384 x3^2 + 29128 x3*x4 + 14564 x3*x5 + 29576 x4^2 + 29576 x4*x5
      + 7394 x5^2 ]/2 + 32598
Subject To

Bounds
 0 <= x0 <= 1
 0 <= x1 <= 1
 0 <= x2 <= 1
 0 <= x3 <= 1
 0 <= x4 <= 1
 0 <= x5 <= 1

Binaries
 x0 x1 x2 x3 x4 x5
End
